\* Problem: Unknown *\

Maximize
 obj: + xp_0_0 + xp_1_0 + xp_1_1 + xp_2_0 + xp_2_1 + xp_3_0 + xp_3_1
 + xp_4_0 + xp_4_1 + xp_5_0 + xp_6_0 + xp_7_0 + xp_8_0 + xp_9_0 + xp_9_1
 + xp_10_0 + xp_11_0 + xp_11_1 + xp_12_0 + xp_12_1 + xp_13_0 + xp_13_1
 + xp_13_2 + xp_14_0 + xp_14_1 + xp_15_0 + xp_16_0 + xp_17_0 + xp_17_1
 + xp_18_0 + xp_18_1 + xp_18_2 + xp_18_3 + xp_19_0 + xp_19_1 + xp_20_0
 + xp_21_0 + xp_22_0 + xp_22_1 + xp_23_0 + xp_24_0 + xp_24_1 + xp_24_2
 + xp_25_0 + xp_26_0 + xp_26_1 + xp_26_2 + xp_27_0 + xp_27_1 + xp_28_0
 + xp_28_1 + xp_29_0 + xp_30_0 + xp_30_1 + xp_30_2 + xp_31_0 + xp_32_0
 + xp_32_1 + xp_32_2 + xp_33_0 + xp_34_0 + xp_34_1 + xp_35_0 + xp_36_0
 + xp_37_0 + xp_38_0 + xp_38_1 + xp_39_0 + xp_40_0 + xp_40_1 + xp_40_2
 + xp_41_0 + xp_41_1 + xp_42_0 + xp_42_1 + xp_42_2 + xp_43_0 + xp_44_0
 + xp_45_0 + xp_45_1 + xp_45_2 + xp_46_0 + xp_47_0 + xp_48_0 + xp_49_0
 + xp_50_0 + xp_50_1 + xp_51_0 + xp_52_0 + xp_53_0 + xp_53_1 + xp_54_0
 + xp_55_0 + xp_56_0 + xp_57_0 + xp_57_1 + xp_58_0 + xp_58_1 + xp_59_0
 + xp_60_0 + xp_60_1 + xp_61_0 + xp_61_1 + xp_62_0 + xp_63_0 + xp_63_1
 + xp_64_0 + xp_65_0 + xp_65_1 + xp_66_0 + xp_67_0 + xp_67_1 + xp_68_0
 + xp_68_1 + xp_69_0 + xp_70_0 + xp_71_0 + xp_72_0 + xp_73_0 + xp_74_0
 + xp_75_0 + xp_76_0 + xp_77_0 + xp_77_1 + xp_77_2 + xp_78_0 + xp_78_1
 + xp_78_2 + xp_78_3 + xp_79_0 + xp_79_1 + xp_79_2 + xp_80_0 + xp_80_1
 + xp_81_0 + xp_81_1 + xp_81_2 + xp_82_0 + xp_82_1 + xp_82_2 + xp_83_0
 + xp_83_1 + xp_84_0 + xp_85_0 + xp_85_1 + xp_85_2 + xp_85_3 + xp_86_0
 + xp_86_1 + xp_87_0 + xp_88_0 + xp_88_1 + xp_89_0 + xp_90_0 + xp_90_1
 + xp_90_2 + xp_91_0 + xp_91_1 + xp_91_2 + xp_92_0 + xp_92_1 + xp_93_0
 + xp_94_0 + xp_94_1 + xp_94_2 + xp_95_0 + xp_95_1 + xp_95_2 + xp_96_0
 + xp_96_1 + xp_97_0 + xp_98_0 + xp_98_1 + xp_98_2 + xp_99_0 + xp_99_1
 + xp_99_2 + xp_100_0 + xp_101_0 + xp_102_0 + xp_103_0 + xp_104_0
 + xp_104_1 + xp_105_0 + xp_105_1 + xp_106_0 + xp_106_1 + xp_107_0
 + xp_108_0 + xp_108_1 + xp_108_2 + xp_109_0 + xp_109_1 + xp_110_0
 + xp_111_0 + xp_111_1 + xp_112_0 + xp_112_1 + xp_113_0 + xp_114_0
 + xp_115_0 + xp_115_1 + xp_116_0 + xp_116_1 + xp_117_0 + xp_118_0
 + xp_119_0 + xp_119_1 + xp_119_2 + xp_120_0 + xp_120_1 + xp_121_0
 + xp_122_0 + xp_123_0 + xp_124_0 + xp_124_1 + xp_125_0 + xp_125_1
 + xp_126_0 + xp_126_1 + xp_126_2 + xp_126_3 + xp_127_0 + xp_127_1
 + xp_128_0 + xp_128_1 + xp_128_2 + xp_129_0 + xp_129_1 + xp_130_0
 + xp_131_0 + xp_131_1 + xp_131_2

Subject To
 r_1: + xp_128_2 + xp_128_1 + xp_122_0 + xp_121_0 + xp_108_1 + xp_107_0
 + xp_78_3 + xp_67_1 + xp_57_1 + xp_40_2 + xp_40_1 + xp_25_0 + xp_22_1
 + xp_18_3 + xp_18_2 + xp_18_1 + xp_16_0 + xp_13_2 + xp_13_1 + xp_4_1
 + xp_4_0 <= 38762.5113739763
 r_2: + xp_131_2 + xp_131_0 + xp_127_0 + xp_126_3 + xp_126_1 + xp_120_1
 + xp_120_0 + xp_94_2 + xp_94_1 + xp_93_0 + xp_90_1 + xp_85_3 + xp_85_2
 + xp_85_1 + xp_85_0 + xp_77_2 + xp_77_1 + xp_75_0 + xp_71_0 + xp_66_0
 + xp_65_1 + xp_65_0 + xp_61_1 + xp_55_0 + xp_52_0 + xp_48_0 + xp_42_2
 + xp_42_1 + xp_38_1 + xp_32_0 + xp_28_1 + xp_28_0 + xp_24_2 + xp_24_0
 + xp_19_1 + xp_19_0 + xp_12_1 + xp_1_1 <= 34729.5900792284
 r_3: + xp_124_1 + xp_114_0 + xp_105_1 + xp_95_1 + xp_91_1 + xp_85_3
 + xp_83_1 + xp_79_1 + xp_76_0 + xp_58_1 + xp_41_1 + xp_34_0 + xp_32_2
 + xp_30_2 + xp_26_2 + xp_24_2 <= 37043.4782608696
 r_4: + xp_119_2 + xp_117_0 + xp_104_1 + xp_95_2 + xp_95_0 + xp_91_2
 + xp_91_0 + xp_88_1 + xp_84_0 + xp_82_2 + xp_81_2 + xp_79_2 + xp_79_0
 + xp_46_0 + xp_43_0 + xp_40_2 + xp_40_1 + xp_40_0 + xp_34_1 + xp_27_1
 + xp_18_3 <= 35516.1437016826
 r_5: + xp_130_0 + xp_119_2 + xp_104_1 + xp_99_0 + xp_88_1 + xp_82_2
 + xp_81_2 + xp_27_1 + xp_18_3 + xp_7_0 + xp_2_0 <= 37043.4782608696
 r_6: + xp_126_3 + xp_126_2 + xp_119_0 + xp_114_0 + xp_95_1 + xp_92_1
 + xp_91_1 + xp_83_1 + xp_83_0 + xp_82_1 + xp_81_0 + xp_79_1 + xp_70_0
 + xp_68_1 + xp_58_1 + xp_53_0 + xp_45_0 + xp_34_0 + xp_32_2 + xp_32_1
 + xp_30_2 + xp_30_1 + xp_18_1 <= 38762.5113739763
 r_7: + xp_119_1 + xp_112_1 + xp_111_1 + xp_104_0 + xp_88_0 + xp_82_0
 + xp_81_1 + xp_78_1 + xp_53_1 + xp_50_1 + xp_45_2 + xp_45_1 + xp_44_0
 + xp_27_0 + xp_18_2 + xp_18_0 + xp_4_1 + xp_3_1 <= 35516.1437016826
 r_8: + xp_131_2 + xp_131_0 + xp_127_0 + xp_126_3 + xp_126_1 + xp_120_1
 + xp_120_0 + xp_118_0 + xp_103_0 + xp_94_2 + xp_94_1 + xp_90_1
 + xp_77_2 + xp_77_1 + xp_71_0 + xp_61_1 + xp_55_0 + xp_42_2 + xp_42_1
 + xp_38_1 + xp_32_0 + xp_24_2 + xp_24_0 + xp_12_1 + xp_1_1
 <= 38762.5113739763
 r_9: + xp_131_1 + xp_127_1 + xp_122_0 + xp_108_1 + xp_78_3 + xp_77_0
 + xp_67_1 + xp_57_1 + xp_42_0 + xp_33_0 + xp_32_2 + xp_32_1 + xp_24_1
 <= 38762.5113739763
 r_10: + xp_112_1 + xp_111_1 + xp_106_0 + xp_99_0 + xp_98_0 + xp_94_1
 + xp_88_1 + xp_88_0 + xp_85_0 + xp_78_1 + xp_50_1 + xp_26_0 + xp_24_0
 + xp_8_0 + xp_7_0 + xp_4_1 + xp_3_1 + xp_2_0 <= 38762.5113739763
 r_11: + xp_119_0 + xp_112_0 + xp_111_0 + xp_95_1 + xp_91_1 + xp_82_1
 + xp_81_0 + xp_79_1 + xp_78_3 + xp_78_2 + xp_78_0 + xp_59_0 + xp_53_0
 + xp_50_0 + xp_49_0 + xp_45_0 + xp_34_0 + xp_18_1 + xp_4_0 + xp_3_0
 <= 36044.4209413009
 r_12: + xp_129_1 + xp_128_2 + xp_128_0 + xp_123_0 + xp_119_1 + xp_117_0
 + xp_112_1 + xp_111_1 + xp_108_2 + xp_101_0 + xp_95_0 + xp_91_2
 + xp_82_2 + xp_82_0 + xp_81_1 + xp_80_1 + xp_79_2 + xp_78_1 + xp_78_0
 + xp_73_0 + xp_63_1 + xp_60_1 + xp_50_1 + xp_46_0 + xp_45_1 + xp_44_0
 + xp_40_2 + xp_40_0 + xp_18_3 + xp_18_2 + xp_18_0 + xp_17_1 + xp_15_0
 + xp_14_0 + xp_13_2 + xp_13_0 + xp_9_0 + xp_4_1 <= 35651.3500710564
 r_13: + xp_129_0 + xp_128_1 + xp_120_1 + xp_119_2 + xp_109_1 + xp_100_0
 + xp_96_1 + xp_95_2 + xp_91_0 + xp_90_0 + xp_81_2 + xp_80_0 + xp_79_0
 + xp_68_0 + xp_63_0 + xp_60_0 + xp_53_1 + xp_45_2 + xp_40_1 + xp_34_1
 + xp_31_0 + xp_30_0 + xp_17_0 + xp_13_1 + xp_9_1 <= 36044.4209413009
 r_14: + xp_131_2 + xp_131_1 + xp_131_0 + xp_126_3 + xp_126_2 + xp_125_1
 + xp_125_0 + xp_124_1 + xp_124_0 + xp_115_1 + xp_115_0 + xp_106_1
 + xp_99_2 + xp_99_1 + xp_98_2 + xp_98_1 + xp_94_2 + xp_94_0 + xp_92_1
 + xp_86_1 + xp_86_0 + xp_85_3 + xp_85_2 + xp_85_1 + xp_77_2 + xp_77_1
 + xp_77_0 + xp_68_1 + xp_65_1 + xp_65_0 + xp_58_1 + xp_56_0 + xp_51_0
 + xp_41_1 + xp_41_0 + xp_38_1 + xp_38_0 + xp_35_0 + xp_32_2 + xp_32_1
 + xp_30_2 + xp_30_1 + xp_26_2 + xp_26_1 + xp_24_2 + xp_24_1 + xp_20_0
 + xp_19_1 + xp_19_0 + xp_12_1 + xp_12_0 + xp_2_1 + xp_0_0
 <= 35516.1437016826
 r_15: + xp_131_1 + xp_131_0 + xp_126_3 + xp_126_2 + xp_125_0 + xp_124_1
 + xp_124_0 + xp_120_1 + xp_116_0 + xp_115_0 + xp_109_1 + xp_99_1
 + xp_98_1 + xp_96_1 + xp_94_2 + xp_94_0 + xp_92_1 + xp_90_0 + xp_89_0
 + xp_86_0 + xp_85_3 + xp_85_1 + xp_77_2 + xp_77_0 + xp_68_1 + xp_68_0
 + xp_65_0 + xp_58_1 + xp_51_0 + xp_42_1 + xp_42_0 + xp_38_0 + xp_36_0
 + xp_32_2 + xp_32_1 + xp_28_0 + xp_26_2 + xp_26_1 + xp_24_2 + xp_24_1
 + xp_19_1 + xp_12_0 + xp_11_1 + xp_0_0 <= 35651.3500710564
 r_16: + xp_128_0 + xp_123_0 + xp_108_2 + xp_108_0 + xp_78_2 + xp_78_1
 + xp_78_0 + xp_73_0 + xp_67_0 + xp_57_0 + xp_46_0 + xp_44_0 + xp_40_0
 + xp_22_0 + xp_18_0 + xp_13_0 + xp_6_0 <= 35651.3500710564
 r_17: + xp_129_1 + xp_128_2 + xp_126_0 + xp_119_1 + xp_112_1 + xp_111_1
 + xp_109_0 + xp_97_0 + xp_95_0 + xp_91_2 + xp_90_2 + xp_81_1 + xp_80_1
 + xp_79_2 + xp_63_1 + xp_62_0 + xp_61_0 + xp_60_1 + xp_47_0 + xp_45_1
 + xp_40_2 + xp_22_1 + xp_18_3 + xp_18_2 + xp_17_1 + xp_13_2 + xp_9_0
 + xp_4_1 + xp_1_0 <= 34729.5900792284
 r_18: + xp_126_1 + xp_126_0 + xp_106_0 + xp_99_0 + xp_98_0 + xp_94_1
 + xp_92_0 + xp_85_0 + xp_68_0 + xp_58_0 + xp_48_0 + xp_32_0 + xp_30_0
 + xp_26_0 + xp_24_0 + xp_5_0 + xp_2_0 <= 36044.4209413009
 r_19: + xp_131_2 + xp_125_1 + xp_116_1 + xp_115_1 + xp_110_0 + xp_108_2
 + xp_106_1 + xp_99_2 + xp_98_2 + xp_86_1 + xp_85_2 + xp_78_0 + xp_77_1
 + xp_65_1 + xp_56_0 + xp_42_2 + xp_38_1 + xp_28_1 + xp_19_0 + xp_14_0
 + xp_12_1 + xp_11_0 + xp_3_0 + xp_2_1 <= 36044.4209413009
 r_20: + xp_129_0 + xp_128_1 + xp_119_2 + xp_119_0 + xp_112_0 + xp_111_0
 + xp_108_1 + xp_108_0 + xp_107_0 + xp_95_2 + xp_95_1 + xp_91_1
 + xp_91_0 + xp_82_1 + xp_81_2 + xp_81_0 + xp_80_0 + xp_79_1 + xp_79_0
 + xp_78_3 + xp_78_2 + xp_69_0 + xp_64_0 + xp_63_0 + xp_60_0 + xp_50_0
 + xp_49_0 + xp_45_2 + xp_45_0 + xp_40_1 + xp_18_1 + xp_17_0 + xp_14_1
 + xp_13_1 + xp_10_0 + xp_9_1 + xp_4_0 <= 34729.5900792284
 r_21: + xp_124_1 + xp_113_0 + xp_105_1 + xp_99_2 + xp_99_1 + xp_86_1
 + xp_86_0 + xp_85_3 + xp_83_1 + xp_77_2 + xp_77_1 + xp_77_0 + xp_65_1
 + xp_65_0 + xp_58_1 + xp_41_1 + xp_38_1 + xp_38_0 + xp_32_2 + xp_30_2
 + xp_26_2 + xp_24_2 + xp_20_0 + xp_2_1 + xp_0_0 <= 35516.1437016826
 r_22: + xp_126_3 + xp_126_2 + xp_124_0 + xp_106_1 + xp_105_0 + xp_98_2
 + xp_98_1 + xp_94_2 + xp_94_0 + xp_92_1 + xp_85_2 + xp_85_1 + xp_83_0
 + xp_68_1 + xp_41_0 + xp_32_1 + xp_30_1 + xp_26_1 + xp_24_1
 <= 35516.1437016826
 r_23: + xp_128_2 + xp_128_1 + xp_128_0 + xp_119_2 + xp_119_1 + xp_117_0
 + xp_112_1 + xp_111_1 + xp_104_1 + xp_104_0 + xp_100_0 + xp_95_2
 + xp_95_0 + xp_91_2 + xp_91_0 + xp_84_0 + xp_82_2 + xp_82_0 + xp_81_2
 + xp_81_1 + xp_80_1 + xp_80_0 + xp_79_2 + xp_79_0 + xp_78_1 + xp_73_0
 + xp_60_1 + xp_60_0 + xp_53_1 + xp_50_1 + xp_46_0 + xp_45_2 + xp_45_1
 + xp_44_0 + xp_40_2 + xp_40_1 + xp_40_0 + xp_34_1 + xp_21_0 + xp_18_3
 + xp_18_2 + xp_18_0 + xp_15_0 + xp_9_1 + xp_9_0 + xp_4_1 + xp_3_1
 <= 35516.1437016826
 r_24: + xp_128_0 + xp_126_3 + xp_126_1 + xp_103_0 + xp_94_2 + xp_94_1
 + xp_90_1 + xp_61_1 + xp_40_0 + xp_39_0 + xp_38_1 + xp_22_0 + xp_18_0
 + xp_13_0 + xp_12_1 + xp_1_1 <= 38762.5113739763
 r_25: + xp_131_1 + xp_127_1 + xp_126_2 + xp_126_0 + xp_94_0 + xp_90_2
 + xp_90_0 + xp_89_0 + xp_77_0 + xp_74_0 + xp_61_0 + xp_42_0 + xp_38_0
 + xp_32_2 + xp_32_1 + xp_24_1 + xp_12_0 + xp_1_0 <= 35651.3500710564
 r_26: + xp_128_2 + xp_128_1 + xp_121_0 + xp_112_1 + xp_112_0 + xp_108_1
 + xp_107_0 + xp_81_2 + xp_81_1 + xp_81_0 + xp_79_2 + xp_79_1 + xp_79_0
 + xp_78_3 + xp_67_1 + xp_64_0 + xp_60_1 + xp_60_0 + xp_57_1 + xp_47_0
 + xp_40_2 + xp_40_1 + xp_37_0 + xp_29_0 + xp_25_0 + xp_22_1 + xp_18_3
 + xp_18_2 + xp_18_1 + xp_17_1 + xp_17_0 + xp_13_2 + xp_13_1 + xp_4_1
 + xp_4_0 <= 34729.5900792284
 r_27: + xp_131_0 + xp_127_0 + xp_126_3 + xp_125_0 + xp_120_1 + xp_116_0
 + xp_115_0 + xp_108_0 + xp_99_1 + xp_98_1 + xp_96_1 + xp_94_2 + xp_92_1
 + xp_86_0 + xp_85_3 + xp_85_1 + xp_82_1 + xp_78_2 + xp_77_2 + xp_72_0
 + xp_67_0 + xp_65_0 + xp_58_1 + xp_57_0 + xp_52_0 + xp_50_0 + xp_42_1
 + xp_28_0 + xp_26_2 + xp_26_1 + xp_24_2 + xp_23_0 + xp_19_1 + xp_14_1
 + xp_11_1 <= 34729.5900792284
 r_28: + xp_131_2 + xp_126_1 + xp_126_0 + xp_125_1 + xp_120_0 + xp_116_1
 + xp_115_1 + xp_109_0 + xp_99_2 + xp_99_0 + xp_98_2 + xp_98_0 + xp_96_0
 + xp_94_1 + xp_92_0 + xp_90_2 + xp_90_1 + xp_86_1 + xp_85_2 + xp_85_0
 + xp_77_1 + xp_75_0 + xp_65_1 + xp_58_0 + xp_54_0 + xp_48_0 + xp_42_2
 + xp_38_1 + xp_32_0 + xp_28_1 + xp_26_0 + xp_24_0 + xp_19_0 + xp_12_1
 + xp_11_0 <= 34729.5900792284
 r_29: + xp_129_1 + xp_129_0 + xp_95_2 + xp_95_1 + xp_95_0 + xp_93_0
 + xp_87_0 + xp_71_0 + xp_62_0 + xp_49_0 + xp_45_2 + xp_45_1 + xp_45_0
 + xp_10_0 + xp_9_1 + xp_9_0 + xp_1_1 + xp_1_0 <= 34729.5900792284
 r_30: + xp_125_1 + xp_125_0 + xp_121_0 + xp_102_0 + xp_99_2 + xp_99_1
 + xp_99_0 + xp_96_1 + xp_96_0 + xp_92_1 + xp_92_0 + xp_57_1 + xp_57_0
 + xp_37_0 + xp_26_2 + xp_26_1 + xp_26_0 + xp_23_0 + xp_11_1 + xp_11_0
 <= 34729.5900792284

Bounds
 0 <= xp_0_0 <= 234.690552366832
 0 <= xp_1_0 <= 90.7950879966654
 0 <= xp_1_1 <= 90.7950879966654
 0 <= xp_2_0 <= 19.0658758789628
 0 <= xp_2_1 <= 95.3293793948141
 0 <= xp_3_0 <= 60.4426506374913
 0 <= xp_3_1 <= 120.885301274983
 0 <= xp_4_0 <= 653.866671619788
 0 <= xp_4_1 <= 130.773334323958
 0 <= xp_5_0 <= 1077.54430426079
 0 <= xp_6_0 <= 1782.27152156342
 0 <= xp_7_0 <= 634.844499754301
 0 <= xp_8_0 <= 1501.62619902644
 0 <= xp_9_0 <= 71.7619901278096
 0 <= xp_9_1 <= 35.8809950639048
 0 <= xp_10_0 <= 54.5426088182134
 0 <= xp_11_0 <= 20.6501463674726
 0 <= xp_11_1 <= 20.6501463674726
 0 <= xp_12_0 <= 1713.36121831493
 0 <= xp_12_1 <= 342.672243662986
 0 <= xp_13_0 <= 83.5402217596274
 0 <= xp_13_1 <= 41.7701108798137
 0 <= xp_13_2 <= 125.310332639441
 0 <= xp_14_0 <= 72.9201464849271
 0 <= xp_14_1 <= 145.840292969854
 0 <= xp_15_0 <= 504.388019528046
 0 <= xp_16_0 <= 2626.76417396273
 0 <= xp_17_0 <= 147.730491552697
 0 <= xp_17_1 <= 147.730491552697
 0 <= xp_18_0 <= 119.027880702247
 0 <= xp_18_1 <= 59.5139403511235
 0 <= xp_18_2 <= 119.027880702247
 0 <= xp_18_3 <= 59.5139403511235
 0 <= xp_19_0 <= 526.480398340231
 0 <= xp_19_1 <= 526.480398340231
 0 <= xp_20_0 <= 127.572015336831
 0 <= xp_21_0 <= 273.040824192138
 0 <= xp_22_0 <= 408.523265968149
 0 <= xp_22_1 <= 817.046531936298
 0 <= xp_23_0 <= 51.7236999490029
 0 <= xp_24_0 <= 225.906045658129
 0 <= xp_24_1 <= 56.4765114145323
 0 <= xp_24_2 <= 56.4765114145323
 0 <= xp_25_0 <= 575.778525541308
 0 <= xp_26_0 <= 7.63727635495416
 0 <= xp_26_1 <= 5.09151756996944
 0 <= xp_26_2 <= 2.54575878498472
 0 <= xp_27_0 <= 280.14272638201
 0 <= xp_27_1 <= 56.0285452764019
 0 <= xp_28_0 <= 442.721656513223
 0 <= xp_28_1 <= 221.360828256611
 0 <= xp_29_0 <= 2435.40615095749
 0 <= xp_30_0 <= 60.8141347520384
 0 <= xp_30_1 <= 91.2212021280576
 0 <= xp_30_2 <= 30.4070673760192
 0 <= xp_31_0 <= 189.653566479677
 0 <= xp_32_0 <= 1493.23502843902
 0 <= xp_32_1 <= 373.308757109755
 0 <= xp_32_2 <= 373.308757109755
 0 <= xp_33_0 <= 8019.2712847423
 0 <= xp_34_0 <= 169.440460246966
 0 <= xp_34_1 <= 338.880920493932
 0 <= xp_35_0 <= 259.732952088656
 0 <= xp_36_0 <= 317.356693856936
 0 <= xp_37_0 <= 363.049239946233
 0 <= xp_38_0 <= 277.629745607132
 0 <= xp_38_1 <= 55.5259491214264
 0 <= xp_39_0 <= 1565.6088747555
 0 <= xp_40_0 <= 281.650514846936
 0 <= xp_40_1 <= 140.825257423468
 0 <= xp_40_2 <= 422.475772270404
 0 <= xp_41_0 <= 53.0129683465488
 0 <= xp_41_1 <= 26.5064841732744
 0 <= xp_42_0 <= 150.647734452229
 0 <= xp_42_1 <= 150.647734452229
 0 <= xp_42_2 <= 150.647734452229
 0 <= xp_43_0 <= 489.637914979851
 0 <= xp_44_0 <= 456.335456711038
 0 <= xp_45_0 <= 21.1745945291862
 0 <= xp_45_1 <= 14.1163963527908
 0 <= xp_45_2 <= 7.05819817639541
 0 <= xp_46_0 <= 1597.66576864024
 0 <= xp_47_0 <= 874.648421697841
 0 <= xp_48_0 <= 2892.26605583024
 0 <= xp_49_0 <= 87.6483990263838
 0 <= xp_50_0 <= 520.339984446834
 0 <= xp_50_1 <= 260.169992223417
 0 <= xp_51_0 <= 706.103893727135
 0 <= xp_52_0 <= 659.165783253769
 0 <= xp_53_0 <= 94.4990031387676
 0 <= xp_53_1 <= 94.4990031387676
 0 <= xp_54_0 <= 3675.52938534948
 0 <= xp_55_0 <= 1179.41835967365
 0 <= xp_56_0 <= 95.3184533914451
 0 <= xp_57_0 <= 136.706154153343
 0 <= xp_57_1 <= 68.3530770766713
 0 <= xp_58_0 <= 3770.34524258595
 0 <= xp_58_1 <= 754.069048517191
 0 <= xp_59_0 <= 10592.6073022305
 0 <= xp_60_0 <= 449.714298669404
 0 <= xp_60_1 <= 224.857149334702
 0 <= xp_61_0 <= 1204.16575730451
 0 <= xp_61_1 <= 1204.16575730451
 0 <= xp_62_0 <= 130.587592266684
 0 <= xp_63_0 <= 109.314663707177
 0 <= xp_63_1 <= 21.8629327414353
 0 <= xp_64_0 <= 989.568125133331
 0 <= xp_65_0 <= 433.216033582164
 0 <= xp_65_1 <= 86.6432067164328
 0 <= xp_66_0 <= 1671.87518352271
 0 <= xp_67_0 <= 268.430050770406
 0 <= xp_67_1 <= 134.215025385203
 0 <= xp_68_0 <= 488.74198270359
 0 <= xp_68_1 <= 977.483965407181
 0 <= xp_69_0 <= 1710.29101136823
 0 <= xp_70_0 <= 628.616677833952
 0 <= xp_71_0 <= 70.5382777504779
 0 <= xp_72_0 <= 596.166447827924
 0 <= xp_73_0 <= 918.570955241354
 0 <= xp_74_0 <= 948.661168519671
 0 <= xp_75_0 <= 1755.52466531603
 0 <= xp_76_0 <= 1713.8310364598
 0 <= xp_77_0 <= 379.613061053687
 0 <= xp_77_1 <= 94.9032652634218
 0 <= xp_77_2 <= 94.9032652634218
 0 <= xp_78_0 <= 4643.21272573464
 0 <= xp_78_1 <= 13929.6381772039
 0 <= xp_78_2 <= 4643.21272573464
 0 <= xp_78_3 <= 4643.21272573464
 0 <= xp_79_0 <= 530.282647512654
 0 <= xp_79_1 <= 176.760882504218
 0 <= xp_79_2 <= 353.521765008436
 0 <= xp_80_0 <= 149.642542142278
 0 <= xp_80_1 <= 74.8212710711389
 0 <= xp_81_0 <= 129.866476044328
 0 <= xp_81_1 <= 86.5776506962186
 0 <= xp_81_2 <= 43.2888253481093
 0 <= xp_82_0 <= 145.88399698333
 0 <= xp_82_1 <= 36.4709992458326
 0 <= xp_82_2 <= 36.4709992458326
 0 <= xp_83_0 <= 418.028888899208
 0 <= xp_83_1 <= 83.6057777798416
 0 <= xp_84_0 <= 886.120725235325
 0 <= xp_85_0 <= 67.8177029115887
 0 <= xp_85_1 <= 203.453108734766
 0 <= xp_85_2 <= 67.8177029115887
 0 <= xp_85_3 <= 67.8177029115887
 0 <= xp_86_0 <= 142.256563864811
 0 <= xp_86_1 <= 28.4513127729623
 0 <= xp_87_0 <= 140.683219379671
 0 <= xp_88_0 <= 352.855278802925
 0 <= xp_88_1 <= 70.571055760585
 0 <= xp_89_0 <= 2211.46678590578
 0 <= xp_90_0 <= 14408.033234717
 0 <= xp_90_1 <= 3602.00830867926
 0 <= xp_90_2 <= 3602.00830867926
 0 <= xp_91_0 <= 1355.01015981738
 0 <= xp_91_1 <= 451.670053272461
 0 <= xp_91_2 <= 903.340106544922
 0 <= xp_92_0 <= 55.5040971146883
 0 <= xp_92_1 <= 11.1008194229377
 0 <= xp_93_0 <= 129.932032064542
 0 <= xp_94_0 <= 157.421856541029
 0 <= xp_94_1 <= 39.3554641352574
 0 <= xp_94_2 <= 39.3554641352574
 0 <= xp_95_0 <= 30.5491054198166
 0 <= xp_95_1 <= 10.1830351399389
 0 <= xp_95_2 <= 20.3660702798778
 0 <= xp_96_0 <= 95.8210495464206
 0 <= xp_96_1 <= 19.1642099092841
 0 <= xp_97_0 <= 525.497058037018
 0 <= xp_98_0 <= 47.5062626485561
 0 <= xp_98_1 <= 71.2593939728341
 0 <= xp_98_2 <= 23.753131324278
 0 <= xp_99_0 <= 2.72057483888925
 0 <= xp_99_1 <= 8.16172451666775
 0 <= xp_99_2 <= 5.4411496777785
 0 <= xp_100_0 <= 501.437998618407
 0 <= xp_101_0 <= 249.112876813955
 0 <= xp_102_0 <= 74.7338630441866
 0 <= xp_103_0 <= 1435.4146186101
 0 <= xp_104_0 <= 109.587813791402
 0 <= xp_104_1 <= 21.9175627582805
 0 <= xp_105_0 <= 1204.5918714359
 0 <= xp_105_1 <= 240.918374287181
 0 <= xp_106_0 <= 13.7667642449818
 0 <= xp_106_1 <= 27.5335284899635
 0 <= xp_107_0 <= 448.40317826512
 0 <= xp_108_0 <= 141.087481504325
 0 <= xp_108_1 <= 564.349926017299
 0 <= xp_108_2 <= 141.087481504325
 0 <= xp_109_0 <= 642.536406126101
 0 <= xp_109_1 <= 321.26820306305
 0 <= xp_110_0 <= 132.816496953967
 0 <= xp_111_0 <= 2430.16166934035
 0 <= xp_111_1 <= 486.03233386807
 0 <= xp_112_0 <= 3889.49330932526
 0 <= xp_112_1 <= 777.898661865052
 0 <= xp_113_0 <= 424.147450785866
 0 <= xp_114_0 <= 2390.6969451714
 0 <= xp_115_0 <= 146.845485279805
 0 <= xp_115_1 <= 73.4227426399027
 0 <= xp_116_0 <= 106.157048733526
 0 <= xp_116_1 <= 53.078524366763
 0 <= xp_117_0 <= 1937.50817743065
 0 <= xp_118_0 <= 3145.37784987726
 0 <= xp_119_0 <= 20.8686664348533
 0 <= xp_119_1 <= 31.3029996522799
 0 <= xp_119_2 <= 10.4343332174266
 0 <= xp_120_0 <= 1802.68129585678
 0 <= xp_120_1 <= 360.536259171355
 0 <= xp_121_0 <= 75.3238672261144
 0 <= xp_122_0 <= 2268.04163135064
 0 <= xp_123_0 <= 512.320297973964
 0 <= xp_124_0 <= 114.395255273777
 0 <= xp_124_1 <= 22.8790510547554
 0 <= xp_125_0 <= 18.137165592595
 0 <= xp_125_1 <= 9.0685827962975
 0 <= xp_126_0 <= 4217.33896641647
 0 <= xp_126_1 <= 8434.67793283294
 0 <= xp_126_2 <= 8434.67793283294
 0 <= xp_126_3 <= 4217.33896641647
 0 <= xp_127_0 <= 383.415310226111
 0 <= xp_127_1 <= 191.707655113055
 0 <= xp_128_0 <= 67.4899228105177
 0 <= xp_128_1 <= 134.979845621035
 0 <= xp_128_2 <= 202.469768431553
 0 <= xp_129_0 <= 24.4196175297891
 0 <= xp_129_1 <= 24.4196175297891
 0 <= xp_130_0 <= 402.448408094967
 0 <= xp_131_0 <= 255.1658826804
 0 <= xp_131_1 <= 127.5829413402
 0 <= xp_131_2 <= 382.7488240206

End
